13,9	0,0	7,1	9,7	0,0	0,0	0,0	0,0	0,0	5,6
17,7	20,0	0,0	18,8	14,7	0,0	0,0	9,3	0,0	0,0
0,0	0,0	8,1	0,0	8,4	17,4	0,0	0,0	9,8	0,0
11,6	0,0	19,1	0,0	0,0	0,0	17,8	0,0	0,0	0,0
0,0	10,0	0,0	14,2	8,2	0,0	0,0	7,5	0,0	0,0
0,0	10,3	17,5	0,0	13,6	5,9	0,0	0,0	13,0	0,0
0,0	15,2	0,0	17,6	0,0	0,0	9,9	0,0	0,0	11,6
19,3	0,0	18,2	0,0	0,0	0,0	0,0	0,0	0,0	15,7
0,0	16,4	0,0	17,0	15,9	0,0	0,0	14,2	0,0	0,0
0,0	0,0	9,0	0,0	0,0	6,7	11,6	0,0	0,0	14,0
									
4,7	4,3	3,1	2,6	3,3	4,7	4,8	4,9	5,0	3,5
